WARNING: for repeatability, setting FPU to use double precision
============================[ Problem Statistics ]=============================
|                                                                             |
|  Number of symmetries:          17                                          |
|  Number of invertingSyms:        0                                          |
|  Number of variables:            90                                         |
|  Number of clauses:             415                                         |
|  Parse time:                   0.00 s                                       |
|                                                                             |
============================[ Search Statistics ]==============================
| Conflicts |          ORIGINAL         |          LEARNT          | Progress |
|           |    Vars  Clauses Literals |    Limit  Clauses Lit/Cl |          |
===============================================================================
|       100 |      90      415      900 |      152      106     33 |  0.012 % |
|       250 |      90      415      900 |      167      201     29 |  0.012 % |
|       475 |      90      415      900 |      184      165     30 |  0.012 % |
|       812 |      90      415      900 |      202      119     25 |  0.012 % |
|      1318 |      90      415      900 |      222      174     26 |  0.012 % |
|      2077 |      90      415      900 |      245      214     25 |  0.012 % |
===============================================================================
restarts              : 15
conflicts             : 3150           (315000 /sec)
symconflicts          : 295            (29500 /sec)
decisions             : 5026           (0.00 % random) (502600 /sec)
propagations          : 55097          (5509700 /sec)
sympropagations       : 1200           (120000 /sec)
conflict literals     : 95137          (6.07 % deleted)
Memory used           : 5.00 MB
CPU time              : 0.01 s

UNSATISFIABLE
